number = array2d(1..12,1..3,[
  
  _,_,_,
  _,_,_,
  _,0,_,
  _,_,_,
  _,_,_,
  _,_,_,
  _,_,_,
  _,_,_,
  _,_,_,
  _,_,_,
  _,_,_,
  _,_,_
  
]);

operation = array1d(1..12,[
  _,
  _,
  _,
  _,
  _,
  0,
  _,
  _,
  _,
  _,
  _,
  _
]);



number2 = array2d(1..8,1..4,[
  
  _,_,_,_,
  _,_,_,_,
  _,_,_,_,
  _,_,_,_,
  _,_,0,_,
  _,_,_,_,
  _,_,_,_,
  _,_,_,_
  
]);

operation2 = array1d(1..8,[
  _,
  _,
  _,
  _,
  0,
  _,
  _,
  _
]);